Route #1: 64 83 52 75 23 21 18 19 76 85 84 51 49 22 20 66 56 50 34 32 26 89 48 24 74 58 77 25 
Route #2: 65 59 47 14 12 73 16 15 11 9 53 78 79 7 6 8 46 3 1 4 100 70 
Route #3: 92 95 63 33 28 27 29 31 30 62 67 71 94 81 90 99 57 86 87 97 13 10 17 60 55 68 
Route #4: 72 36 39 42 5 45 2 88 98 82 69 61 44 41 38 40 43 35 37 54 96 93 91 80 
Objective: 82251.5
